WARNING: for repeatability, setting FPU to use double precision
============================[ Problem Statistics ]=============================
|                                                                             |
|  Number of variables:        842071                                         |
|  Number of clauses:         2261948                                         |
|  Parse time:                   0.59 s                                       |
|                                                                             |
c ============================[ Search Statistics ]==============================
c | Conflicts |          ORIGINAL         |          LEARNT          | Progress |
c |           |    Vars  Clauses Literals |    Limit  Clauses Lit/Cl |          |
c ===============================================================================
We had 19065 decisions of which only 0 were on extended
We had 96146720 decisions of which only 0 were on extended
c Switched to VSIDS.
c Switched to LRB.
c Switched to VSIDS.
c Switched to LRB.
c Switched to VSIDS.
c Switched to LRB.
c Switched to VSIDS.
c Switched to LRB.
c Switched to VSIDS.
c Switched to LRB.
We had 106889399 decisions of which only 0 were on extended
c Switched to VSIDS.
c Switched to LRB.
c Switched to VSIDS.
c Switched to LRB.
c Switched to VSIDS.
We had 126848351 decisions of which only 0 were on extended
c Switched to LRB.
We had 131705570 decisions of which only 0 were on extended
c Switched to VSIDS.
c Switched to LRB.
c Switched to VSIDS.
c Switched to LRB.
We had 136949172 decisions of which only 0 were on extended
c Switched to VSIDS.
c Switched to LRB.
We had 158756368 decisions of which only 0 were on extended
We had 158932869 decisions of which only 0 were on extended
c Switched to VSIDS.
c Switched to LRB.
We had 159394054 decisions of which only 0 were on extended
c Switched to VSIDS.
We had 159555966 decisions of which only 0 were on extended
We had 159965399 decisions of which only 0 were on extended
c Switched to LRB.
We had 160227422 decisions of which only 0 were on extended
c Switched to VSIDS.
We had 160491613 decisions of which only 0 were on extended
c Switched to LRB.
We had 160887535 decisions of which only 0 were on extended
We had 161001832 decisions of which only 0 were on extended
c Switched to VSIDS.
We had 161213245 decisions of which only 0 were on extended
We had 161417492 decisions of which only 0 were on extended
c Switched to LRB.
We had 161587666 decisions of which only 0 were on extended
We had 161691755 decisions of which only 0 were on extended
c Switched to VSIDS.
Window full
Deactivate
We had 161917550 decisions of which only 0 were on extended
We had 162243091 decisions of which only 0 were on extended
c Switched to LRB.
We had 162433073 decisions of which only 0 were on extended
We had 162553917 decisions of which only 0 were on extended
c Switched to VSIDS.
We had 162741705 decisions of which only 0 were on extended
We had 162958755 decisions of which only 0 were on extended
We had 163197195 decisions of which only 0 were on extended
c Switched to LRB.
c ===============================================================================
restarts                  : 1363
conflicts                 : 256129         (72 /sec)
decisions                 : 163279764      (0.00 % random) (45600 /sec)
propagations              : 8648259347     (2415222 /sec)
conflict literals         : 165842411      (18.50 % deleted)

conflicts w/ DIP found    : 163739         (63.93 % of conflicts)
conflicts w/ dangerous DIP: 0              (0.00 % of conflicts)
conflicts w/ DIP-learning : 0              (0.00 % of conflicts)
decisions on ext vars     : 0              (0.00 % of decisions)
total ext vars            : 0           
tried delete ext vars     : 0           
deleted ext vars          : 0           
max ext vars              : 0           

Memory used               : 842.00 MB
CPU time                  : 3580.73 s
DIP computation time      : 27.7031 s (0.77 % of total time)
ER_sel time               : 0.98108 s
ER_add time               : 0 s
ER_delC time              : 0 s
ER_delV time              : 0 s
ER_sub time               : 0.402144 s
ER_stat time              : 0 s

INDETERMINATE
